Minimize
  obj: x0 + x1 + x2 + x3 + x4 + x5 + x6 + x7 + x8

Subject To
  c0: x0 + x1 + x5 + x6 + x7 = 59
  c1: x0 + x4 + x6 + x7 = 58
  c2: x0 + x2 + x3 + x6 + x8 = 34
  c3: x0 + x3 + x4 + x6 + x7 + x8 = 67
  c4: x2 + x3 + x4 + x5 + x6 + x8 = 55
  c5: x2 + x3 + x4 + x5 + x6 + x8 = 55
  c6: x0 + x3 + x4 + x5 = 56
  c7: x0 + x1 + x2 + x4 + x5 + x8 = 60
  c8: x0 + x4 + x6 + x7 + x8 = 60
  c9: x0 + x1 + x4 + x5 = 53

Bounds
  x0 >= 0
  x1 >= 0
  x2 >= 0
  x3 >= 0
  x4 >= 0
  x5 >= 0
  x6 >= 0
  x7 >= 0
  x8 >= 0

Generals
  x0 x1 x2 x3 x4 x5 x6 x7 x8

End
